2000, -294970296
979, 4002001
484, 4002002
292, 4002003
389, 4002004
923, 4002005
445, 4002006
197, 4002007
689, 4002008
392, 4002009
41, 4002010
669, 4002011
506, 4002012
84, 4002013
70, 4002014
431, 4002015
804, 4002016
319, 4002017
12, 4002018
699, 4002019
147, 4002020
511, 4002021
60, 4002022
464, 4002023
480, 4002024
45, 4002025
492, 4002026
658, 4002027
25, 4002028
918, 4002029
49, 4002030
869, 4002031
93, 4002032
56, 4002033
180, 4002034
815, 4002035
837, 4002036
352, 4002037
5, 4002038
905, 4002039
140, 4002040
562, 4002041
914, 4002042
334, 4002043
319, 4002044
192, 4002045
416, 4002046
211, 4002047
46, 4002048
857, 4002049
960, 4002050
581, 4002051
176, 4002052
932, 4002053
163, 4002054
589, 4002055
922, 4002056
330, 4002057
70, 4002058
790, 4002059
41, 4002060
166, 4002061
151, 4002062
405, 4002063
658, 4002064
104, 4002065
173, 4002066
696, 4002067
680, 4002068
829, 4002069
443, 4002070
359, 4002071
582, 4002072
488, 4002073
181, 4002074
542, 4002075
481, 4002076
228, 4002077
856, 4002078
672, 4002079
383, 4002080
607, 4002081
494, 4002082
293, 4002083
825, 4002084
265, 4002085
111, 4002086
116, 4002087
44, 4002088
354, 4002089
481, 4002090
961, 4002091
475, 4002092
287, 4002093
25, 4002094
968, 4002095
207, 4002096
196, 4002097
503, 4002098
623, 4002099
799, 4002100
482, 4002101
261, 4002102
624, 4002103
167, 4002104
43, 4002105
752, 4002106
972, 4002107
589, 4002108
617, 4002109
469, 4002110
944, 4002111
398, 4002112
2, 4002113
317, 4002114
347, 4002115
981, 4002116
478, 4002117
497, 4002118
429, 4002119
164, 4002120
694, 4002121
381, 4002122
146, 4002123
977, 4002124
559, 4002125
705, 4002126
581, 4002127
458, 4002128
909, 4002129
962, 4002130
836, 4002131
536, 4002132
104, 4002133
933, 4002134
962, 4002135
951, 4002136
545, 4002137
749, 4002138
727, 4002139
588, 4002140
557, 4002141
95, 4002142
850, 4002143
789, 4002144
408, 4002145
157, 4002146
247, 4002147
84, 4002148
331, 4002149
887, 4002150
625, 4002151
428, 4002152
727, 4002153
90, 4002154
985, 4002155
282, 4002156
623, 4002157
61, 4002158
164, 4002159
172, 4002160
561, 4002161
951, 4002162
440, 4002163
77, 4002164
429, 4002165
114, 4002166
534, 4002167
287, 4002168
788, 4002169
259, 4002170
81, 4002171
750, 4002172
977, 4002173
342, 4002174
38, 4002175
419, 4002176
123, 4002177
894, 4002178
722, 4002179
663, 4002180
409, 4002181
850, 4002182
902, 4002183
523, 4002184
292, 4002185
921, 4002186
630, 4002187
598, 4002188
704, 4002189
679, 4002190
653, 4002191
718, 4002192
314, 4002193
61, 4002194
497, 4002195
549, 4002196
274, 4002197
236, 4002198
949, 4002199
461, 4002200
563, 4002201
881, 4002202
354, 4002203
628, 4002204
454, 4002205
435, 4002206
92, 4002207
809, 4002208
274, 4002209
192, 4002210
571, 4002211
948, 4002212
358, 4002213
651, 4002214
630, 4002215
609, 4002216
437, 4002217
304, 4002218
785, 4002219
181, 4002220
112, 4002221
454, 4002222
792, 4002223
663, 4002224
287, 4002225
515, 4002226
929, 4002227
336, 4002228
992, 4002229
139, 4002230
78, 4002231
83, 4002232
397, 4002233
722, 4002234
480, 4002235
29, 4002236
339, 4002237
452, 4002238
244, 4002239
125, 4002240
749, 4002241
451, 4002242
665, 4002243
236, 4002244
564, 4002245
337, 4002246
912, 4002247
918, 4002248
961, 4002249
113, 4002250
618, 4002251
839, 4002252
649, 4002253
642, 4002254
669, 4002255
871, 4002256
424, 4002257
579, 4002258
79, 4002259
654, 4002260
78, 4002261
136, 4002262
376, 4002263
783, 4002264
613, 4002265
587, 4002266
660, 4002267
976, 4002268
503, 4002269
243, 4002270
366, 4002271
328, 4002272
164, 4002273
968, 4002274
974, 4002275
568, 4002276
394, 4002277
260, 4002278
124, 4002279
506, 4002280
875, 4002281
907, 4002282
34, 4002283
629, 4002284
394, 4002285
227, 4002286
796, 4002287
510, 4002288
141, 4002289
524, 4002290
139, 4002291
335, 4002292
156, 4002293
225, 4002294
285, 4002295
779, 4002296
936, 4002297
973, 4002298
807, 4002299
919, 4002300
940, 4002301
894, 4002302
747, 4002303
451, 4002304
671, 4002305
357, 4002306
849, 4002307
79, 4002308
808, 4002309
804, 4002310
602, 4002311
30, 4002312
816, 4002313
670, 4002314
463, 4002315
349, 4002316
171, 4002317
145, 4002318
470, 4002319
28, 4002320
70, 4002321
806, 4002322
485, 4002323
579, 4002324
762, 4002325
984, 4002326
372, 4002327
694, 4002328
679, 4002329
440, 4002330
367, 4002331
273, 4002332
33, 4002333
119, 4002334
666, 4002335
917, 4002336
750, 4002337
892, 4002338
58, 4002339
96, 4002340
134, 4002341
969, 4002342
466, 4002343
24, 4002344
393, 4002345
346, 4002346
147, 4002347
249, 4002348
924, 4002349
533, 4002350
266, 4002351
337, 4002352
828, 4002353
266, 4002354
685, 4002355
563, 4002356
96, 4002357
195, 4002358
206, 4002359
408, 4002360
234, 4002361
605, 4002362
598, 4002363
583, 4002364
742, 4002365
901, 4002366
586, 4002367
237, 4002368
842, 4002369
100, 4002370
250, 4002371
21, 4002372
684, 4002373
219, 4002374
724, 4002375
746, 4002376
431, 4002377
47, 4002378
269, 4002379
343, 4002380
541, 4002381
477, 4002382
279, 4002383
614, 4002384
581, 4002385
70, 4002386
899, 4002387
69, 4002388
686, 4002389
972, 4002390
25, 4002391
1, 4002392
18, 4002393
211, 4002394
211, 4002395
463, 4002396
532, 4002397
704, 4002398
373, 4002399
917, 4002400
17, 4002401
277, 4002402
975, 4002403
542, 4002404
226, 4002405
2, 4002406
568, 4002407
386, 4002408
72, 4002409
709, 4002410
4, 4002411
761, 4002412
870, 4002413
979, 4002414
447, 4002415
305, 4002416
291, 4002417
148, 4002418
824, 4002419
275, 4002420
21, 4002421
266, 4002422
382, 4002423
18, 4002424
846, 4002425
481, 4002426
470, 4002427
474, 4002428
137, 4002429
704, 4002430
490, 4002431
268, 4002432
325, 4002433
855, 4002434
162, 4002435
689, 4002436
609, 4002437
719, 4002438
767, 4002439
90, 4002440
854, 4002441
420, 4002442
778, 4002443
830, 4002444
368, 4002445
285, 4002446
369, 4002447
108, 4002448
564, 4002449
250, 4002450
210, 4002451
740, 4002452
627, 4002453
997, 4002454
750, 4002455
993, 4002456
53, 4002457
721, 4002458
15, 4002459
537, 4002460
79, 4002461
6, 4002462
801, 4002463
491, 4002464
157, 4002465
850, 4002466
668, 4002467
639, 4002468
167, 4002469
712, 4002470
672, 4002471
233, 4002472
800, 4002473
69, 4002474
839, 4002475
486, 4002476
122, 4002477
381, 4002478
990, 4002479
797, 4002480
962, 4002481
562, 4002482
579, 4002483
535, 4002484
234, 4002485
261, 4002486
928, 4002487
247, 4002488
641, 4002489
250, 4002490
838, 4002491
739, 4002492
492, 4002493
456, 4002494
947, 4002495
312, 4002496
601, 4002497
998, 4002498
980, 4002499
833, 4002500
526, 4002501
471, 4002502
138, 4002503
375, 4002504
854, 4002505
86, 4002506
41, 4002507
650, 4002508
547, 4002509
386, 4002510
948, 4002511
382, 4002512
676, 4002513
291, 4002514
82, 4002515
6, 4002516
376, 4002517
818, 4002518
476, 4002519
477, 4002520
977, 4002521
365, 4002522
171, 4002523
167, 4002524
818, 4002525
448, 4002526
910, 4002527
244, 4002528
985, 4002529
28, 4002530
242, 4002531
5, 4002532
365, 4002533
795, 4002534
767, 4002535
957, 4002536
448, 4002537
217, 4002538
897, 4002539
864, 4002540
125, 4002541
684, 4002542
900, 4002543
110, 4002544
714, 4002545
397, 4002546
519, 4002547
313, 4002548
31, 4002549
829, 4002550
354, 4002551
426, 4002552
413, 4002553
560, 4002554
695, 4002555
599, 4002556
456, 4002557
740, 4002558
331, 4002559
104, 4002560
813, 4002561
322, 4002562
726, 4002563
429, 4002564
212, 4002565
356, 4002566
886, 4002567
481, 4002568
870, 4002569
789, 4002570
888, 4002571
625, 4002572
271, 4002573
684, 4002574
879, 4002575
741, 4002576
405, 4002577
768, 4002578
138, 4002579
478, 4002580
46, 4002581
924, 4002582
418, 4002583
62, 4002584
110, 4002585
612, 4002586
656, 4002587
450, 4002588
390, 4002589
198, 4002590
787, 4002591
683, 4002592
77, 4002593
666, 4002594
736, 4002595
472, 4002596
979, 4002597
506, 4002598
375, 4002599
36, 4002600
600, 4002601
362, 4002602
981, 4002603
310, 4002604
953, 4002605
176, 4002606
140, 4002607
788, 4002608
107, 4002609
308, 4002610
531, 4002611
54, 4002612
950, 4002613
305, 4002614
644, 4002615
609, 4002616
178, 4002617
626, 4002618
792, 4002619
697, 4002620
908, 4002621
85, 4002622
685, 4002623
796, 4002624
722, 4002625
843, 4002626
368, 4002627
310, 4002628
226, 4002629
661, 4002630
475, 4002631
247, 4002632
263, 4002633
120, 4002634
767, 4002635
86, 4002636
627, 4002637
626, 4002638
458, 4002639
609, 4002640
838, 4002641
402, 4002642
90, 4002643
994, 4002644
613, 4002645
99, 4002646
800, 4002647
603, 4002648
91, 4002649
936, 4002650
974, 4002651
242, 4002652
699, 4002653
273, 4002654
369, 4002655
189, 4002656
130, 4002657
37, 4002658
14, 4002659
719, 4002660
577, 4002661
174, 4002662
376, 4002663
81, 4002664
25, 4002665
399, 4002666
512, 4002667
497, 4002668
494, 4002669
296, 4002670
339, 4002671
70, 4002672
452, 4002673
824, 4002674
600, 4002675
136, 4002676
124, 4002677
874, 4002678
735, 4002679
860, 4002680
831, 4002681
688, 4002682
10, 4002683
422, 4002684
209, 4002685
122, 4002686
839, 4002687
942, 4002688
63, 4002689
72, 4002690
411, 4002691
907, 4002692
457, 4002693
355, 4002694
616, 4002695
866, 4002696
376, 4002697
848, 4002698
111, 4002699
367, 4002700
848, 4002701
124, 4002702
894, 4002703
569, 4002704
855, 4002705
272, 4002706
107, 4002707
314, 4002708
980, 4002709
582, 4002710
687, 4002711
541, 4002712
888, 4002713
913, 4002714
116, 4002715
198, 4002716
808, 4002717
105, 4002718
327, 4002719
365, 4002720
264, 4002721
284, 4002722
374, 4002723
426, 4002724
384, 4002725
414, 4002726
729, 4002727
922, 4002728
459, 4002729
129, 4002730
668, 4002731
448, 4002732
811, 4002733
909, 4002734
876, 4002735
524, 4002736
302, 4002737
913, 4002738
637, 4002739
903, 4002740
835, 4002741
487, 4002742
290, 4002743
700, 4002744
989, 4002745
931, 4002746
540, 4002747
721, 4002748
910, 4002749
212, 4002750
545, 4002751
827, 4002752
333, 4002753
529, 4002754
910, 4002755
589, 4002756
480, 4002757
301, 4002758
285, 4002759
161, 4002760
322, 4002761
20, 4002762
872, 4002763
148, 4002764
262, 4002765
67, 4002766
731, 4002767
110, 4002768
433, 4002769
683, 4002770
293, 4002771
807, 4002772
819, 4002773
637, 4002774
407, 4002775
235, 4002776
750, 4002777
550, 4002778
803, 4002779
462, 4002780
133, 4002781
109, 4002782
85, 4002783
472, 4002784
862, 4002785
992, 4002786
485, 4002787
850, 4002788
288, 4002789
938, 4002790
955, 4002791
543, 4002792
373, 4002793
767, 4002794
153, 4002795
467, 4002796
688, 4002797
54, 4002798
404, 4002799
735, 4002800
104, 4002801
902, 4002802
499, 4002803
946, 4002804
459, 4002805
24, 4002806
422, 4002807
145, 4002808
347, 4002809
347, 4002810
255, 4002811
311, 4002812
540, 4002813
602, 4002814
196, 4002815
573, 4002816
611, 4002817
255, 4002818
954, 4002819
699, 4002820
808, 4002821
420, 4002822
667, 4002823
740, 4002824
100, 4002825
180, 4002826
537, 4002827
438, 4002828
595, 4002829
886, 4002830
624, 4002831
551, 4002832
243, 4002833
618, 4002834
519, 4002835
545, 4002836
227, 4002837
65, 4002838
383, 4002839
62, 4002840
396, 4002841
688, 4002842
794, 4002843
763, 4002844
211, 4002845
789, 4002846
652, 4002847
73, 4002848
284, 4002849
344, 4002850
61, 4002851
567, 4002852
88, 4002853
827, 4002854
909, 4002855
177, 4002856
112, 4002857
106, 4002858
974, 4002859
588, 4002860
935, 4002861
980, 4002862
582, 4002863
46, 4002864
507, 4002865
583, 4002866
873, 4002867
554, 4002868
179, 4002869
807, 4002870
578, 4002871
338, 4002872
986, 4002873
895, 4002874
890, 4002875
195, 4002876
722, 4002877
589, 4002878
7, 4002879
116, 4002880
642, 4002881
970, 4002882
143, 4002883
246, 4002884
488, 4002885
903, 4002886
761, 4002887
220, 4002888
31, 4002889
289, 4002890
666, 4002891
964, 4002892
282, 4002893
662, 4002894
525, 4002895
141, 4002896
310, 4002897
69, 4002898
794, 4002899
526, 4002900
379, 4002901
65, 4002902
503, 4002903
45, 4002904
83, 4002905
974, 4002906
833, 4002907
989, 4002908
537, 4002909
362, 4002910
692, 4002911
62, 4002912
171, 4002913
693, 4002914
742, 4002915
568, 4002916
97, 4002917
689, 4002918
912, 4002919
343, 4002920
603, 4002921
434, 4002922
572, 4002923
608, 4002924
389, 4002925
486, 4002926
839, 4002927
898, 4002928
310, 4002929
781, 4002930
352, 4002931
750, 4002932
124, 4002933
513, 4002934
911, 4002935
591, 4002936
209, 4002937
71, 4002938
174, 4002939
226, 4002940
665, 4002941
732, 4002942
91, 4002943
247, 4002944
897, 4002945
49, 4002946
603, 4002947
997, 4002948
113, 4002949
727, 4002950
272, 4002951
433, 4002952
522, 4002953
531, 4002954
612, 4002955
215, 4002956
297, 4002957
450, 4002958
347, 4002959
799, 4002960
905, 4002961
790, 4002962
445, 4002963
241, 4002964
76, 4002965
750, 4002966
304, 4002967
249, 4002968
499, 4002969
321, 4002970
257, 4002971
339, 4002972
224, 4002973
916, 4002974
60, 4002975
415, 4002976
579, 4002977
774, 4002978
759, 4002979
189, 4002980
442, 4002981
523, 4002982
819, 4002983
186, 4002984
310, 4002985
45, 4002986
946, 4002987
729, 4002988
412, 4002989
252, 4002990
217, 4002991
571, 4002992
9, 4002993
271, 4002994
151, 4002995
871, 4002996
725, 4002997
697, 4002998
108, 4002999
833, 4003000
961, 4003001
420, 4003002
843, 4003003
919, 4003004
872, 4003005
776, 4003006
935, 4003007
6, 4003008
529, 4003009
925, 4003010
937, 4003011
57, 4003012
658, 4003013
572, 4003014
680, 4003015
594, 4003016
614, 4003017
473, 4003018
703, 4003019
127, 4003020
280, 4003021
683, 4003022
850, 4003023
45, 4003024
557, 4003025
914, 4003026
840, 4003027
832, 4003028
46, 4003029
360, 4003030
690, 4003031
465, 4003032
363, 4003033
120, 4003034
938, 4003035
957, 4003036
600, 4003037
274, 4003038
821, 4003039
117, 4003040
99, 4003041
516, 4003042
825, 4003043
856, 4003044
19, 4003045
937, 4003046
207, 4003047
809, 4003048
74, 4003049
406, 4003050
729, 4003051
943, 4003052
948, 4003053
647, 4003054
788, 4003055
111, 4003056
509, 4003057
238, 4003058
999, 4003059
124, 4003060
23, 4003061
644, 4003062
762, 4003063
832, 4003064
313, 4003065
750, 4003066
823, 4003067
71, 4003068
984, 4003069
752, 4003070
476, 4003071
666, 4003072
265, 4003073
413, 4003074
119, 4003075
17, 4003076
900, 4003077
924, 4003078
72, 4003079
160, 4003080
634, 4003081
748, 4003082
257, 4003083
122, 4003084
320, 4003085
145, 4003086
657, 4003087
745, 4003088
242, 4003089
67, 4003090
572, 4003091
955, 4003092
248, 4003093
182, 4003094
116, 4003095
309, 4003096
379, 4003097
108, 4003098
947, 4003099
620, 4003100
808, 4003101
860, 4003102
78, 4003103
15, 4003104
347, 4003105
254, 4003106
499, 4003107
118, 4003108
741, 4003109
660, 4003110
387, 4003111
77, 4003112
879, 4003113
419, 4003114
664, 4003115
777, 4003116
124, 4003117
999, 4003118
431, 4003119
137, 4003120
666, 4003121
138, 4003122
855, 4003123
406, 4003124
561, 4003125
188, 4003126
256, 4003127
403, 4003128
882, 4003129
644, 4003130
69, 4003131
460, 4003132
488, 4003133
605, 4003134
578, 4003135
123, 4003136
714, 4003137
113, 4003138
149, 4003139
238, 4003140
902, 4003141
354, 4003142
512, 4003143
754, 4003144
39, 4003145
395, 4003146
773, 4003147
155, 4003148
960, 4003149
75, 4003150
496, 4003151
848, 4003152
447, 4003153
985, 4003154
825, 4003155
3, 4003156
826, 4003157
304, 4003158
311, 4003159
799, 4003160
892, 4003161
580, 4003162
389, 4003163
832, 4003164
168, 4003165
211, 4003166
751, 4003167
342, 4003168
324, 4003169
949, 4003170
22, 4003171
697, 4003172
840, 4003173
404, 4003174
295, 4003175
189, 4003176
340, 4003177
884, 4003178
384, 4003179
928, 4003180
444, 4003181
291, 4003182
555, 4003183
167, 4003184
943, 4003185
321, 4003186
40, 4003187
156, 4003188
43, 4003189
329, 4003190
135, 4003191
930, 4003192
611, 4003193
326, 4003194
867, 4003195
286, 4003196
969, 4003197
646, 4003198
511, 4003199
936, 4003200
315, 4003201
738, 4003202
68, 4003203
943, 4003204
729, 4003205
723, 4003206
873, 4003207
616, 4003208
181, 4003209
894, 4003210
697, 4003211
688, 4003212
561, 4003213
145, 4003214
160, 4003215
28, 4003216
660, 4003217
267, 4003218
206, 4003219
608, 4003220
653, 4003221
239, 4003222
754, 4003223
148, 4003224
133, 4003225
609, 4003226
175, 4003227
104, 4003228
665, 4003229
247, 4003230
650, 4003231
865, 4003232
310, 4003233
400, 4003234
737, 4003235
465, 4003236
171, 4003237
432, 4003238
565, 4003239
778, 4003240
65, 4003241
122, 4003242
832, 4003243
3, 4003244
150, 4003245
252, 4003246
39, 4003247
609, 4003248
661, 4003249
438, 4003250
657, 4003251
694, 4003252
231, 4003253
42, 4003254
934, 4003255
518, 4003256
892, 4003257
877, 4003258
81, 4003259
100, 4003260
706, 4003261
124, 4003262
622, 4003263
369, 4003264
941, 4003265
512, 4003266
27, 4003267
853, 4003268
340, 4003269
650, 4003270
610, 4003271
883, 4003272
498, 4003273
214, 4003274
557, 4003275
441, 4003276
434, 4003277
860, 4003278
801, 4003279
69, 4003280
786, 4003281
354, 4003282
227, 4003283
921, 4003284
744, 4003285
731, 4003286
453, 4003287
111, 4003288
119, 4003289
850, 4003290
97, 4003291
756, 4003292
11, 4003293
23, 4003294
356, 4003295
577, 4003296
520, 4003297
704, 4003298
516, 4003299
189, 4003300
462, 4003301
17, 4003302
242, 4003303
948, 4003304
847, 4003305
724, 4003306
745, 4003307
506, 4003308
519, 4003309
49, 4003310
492, 4003311
208, 4003312
947, 4003313
407, 4003314
75, 4003315
150, 4003316
594, 4003317
848, 4003318
902, 4003319
974, 4003320
55, 4003321
744, 4003322
224, 4003323
607, 4003324
276, 4003325
438, 4003326
917, 4003327
23, 4003328
847, 4003329
498, 4003330
531, 4003331
279, 4003332
192, 4003333
717, 4003334
540, 4003335
683, 4003336
769, 4003337
139, 4003338
330, 4003339
431, 4003340
908, 4003341
827, 4003342
834, 4003343
202, 4003344
280, 4003345
685, 4003346
673, 4003347
302, 4003348
692, 4003349
675, 4003350
721, 4003351
957, 4003352
418, 4003353
408, 4003354
716, 4003355
845, 4003356
837, 4003357
707, 4003358
543, 4003359
677, 4003360
354, 4003361
876, 4003362
648, 4003363
869, 4003364
914, 4003365
62, 4003366
32, 4003367
609, 4003368
430, 4003369
827, 4003370
778, 4003371
934, 4003372
417, 4003373
211, 4003374
193, 4003375
675, 4003376
745, 4003377
876, 4003378
53, 4003379
313, 4003380
270, 4003381
618, 4003382
182, 4003383
499, 4003384
665, 4003385
960, 4003386
175, 4003387
590, 4003388
206, 4003389
949, 4003390
84, 4003391
282, 4003392
330, 4003393
352, 4003394
100, 4003395
758, 4003396
244, 4003397
396, 4003398
319, 4003399
471, 4003400
167, 4003401
76, 4003402
976, 4003403
249, 4003404
870, 4003405
327, 4003406
939, 4003407
556, 4003408
567, 4003409
213, 4003410
728, 4003411
416, 4003412
785, 4003413
223, 4003414
302, 4003415
280, 4003416
229, 4003417
106, 4003418
376, 4003419
259, 4003420
407, 4003421
684, 4003422
859, 4003423
614, 4003424
349, 4003425
309, 4003426
797, 4003427
130, 4003428
207, 4003429
559, 4003430
607, 4003431
876, 4003432
941, 4003433
622, 4003434
228, 4003435
55, 4003436
596, 4003437
489, 4003438
407, 4003439
83, 4003440
9, 4003441
494, 4003442
112, 4003443
218, 4003444
307, 4003445
793, 4003446
887, 4003447
781, 4003448
892, 4003449
653, 4003450
423, 4003451
10, 4003452
281, 4003453
248, 4003454
324, 4003455
297, 4003456
269, 4003457
595, 4003458
453, 4003459
498, 4003460
209, 4003461
208, 4003462
458, 4003463
424, 4003464
759, 4003465
866, 4003466
214, 4003467
568, 4003468
777, 4003469
415, 4003470
669, 4003471
82, 4003472
230, 4003473
617, 4003474
511, 4003475
862, 4003476
197, 4003477
464, 4003478
443, 4003479
216, 4003480
856, 4003481
945, 4003482
980, 4003483
701, 4003484
106, 4003485
178, 4003486
999, 4003487
179, 4003488
833, 4003489
691, 4003490
890, 4003491
556, 4003492
44, 4003493
157, 4003494
142, 4003495
691, 4003496
309, 4003497
870, 4003498
862, 4003499
708, 4003500
647, 4003501
427, 4003502
269, 4003503
848, 4003504
1, 4003505
13, 4003506
771, 4003507
230, 4003508
320, 4003509
4, 4003510
576, 4003511
923, 4003512
344, 4003513
910, 4003514
727, 4003515
42, 4003516
380, 4003517
264, 4003518
420, 4003519
676, 4003520
137, 4003521
771, 4003522
934, 4003523
657, 4003524
446, 4003525
232, 4003526
917, 4003527
421, 4003528
207, 4003529
108, 4003530
540, 4003531
715, 4003532
901, 4003533
196, 4003534
632, 4003535
301, 4003536
670, 4003537
113, 4003538
94, 4003539
273, 4003540
947, 4003541
469, 4003542
80, 4003543
652, 4003544
844, 4003545
20, 4003546
177, 4003547
787, 4003548
854, 4003549
356, 4003550
484, 4003551
85, 4003552
469, 4003553
812, 4003554
544, 4003555
82, 4003556
513, 4003557
376, 4003558
798, 4003559
982, 4003560
157, 4003561
523, 4003562
696, 4003563
438, 4003564
659, 4003565
466, 4003566
860, 4003567
881, 4003568
656, 4003569
559, 4003570
863, 4003571
39, 4003572
390, 4003573
772, 4003574
626, 4003575
893, 4003576
780, 4003577
51, 4003578
304, 4003579
63, 4003580
543, 4003581
236, 4003582
221, 4003583
580, 4003584
893, 4003585
367, 4003586
288, 4003587
742, 4003588
380, 4003589
677, 4003590
417, 4003591
438, 4003592
671, 4003593
562, 4003594
171, 4003595
771, 4003596
224, 4003597
982, 4003598
971, 4003599
340, 4003600
351, 4003601
135, 4003602
982, 4003603
593, 4003604
193, 4003605
567, 4003606
910, 4003607
397, 4003608
337, 4003609
332, 4003610
134, 4003611
678, 4003612
946, 4003613
602, 4003614
81, 4003615
115, 4003616
265, 4003617
843, 4003618
838, 4003619
980, 4003620
279, 4003621
711, 4003622
678, 4003623
534, 4003624
757, 4003625
67, 4003626
420, 4003627
828, 4003628
759, 4003629
270, 4003630
627, 4003631
814, 4003632
425, 4003633
503, 4003634
771, 4003635
749, 4003636
420, 4003637
536, 4003638
468, 4003639
212, 4003640
953, 4003641
325, 4003642
249, 4003643
40, 4003644
868, 4003645
117, 4003646
766, 4003647
1, 4003648
994, 4003649
215, 4003650
82, 4003651
694, 4003652
635, 4003653
38, 4003654
325, 4003655
588, 4003656
112, 4003657
774, 4003658
650, 4003659
200, 4003660
861, 4003661
156, 4003662
86, 4003663
975, 4003664
159, 4003665
320, 4003666
239, 4003667
525, 4003668
487, 4003669
854, 4003670
813, 4003671
738, 4003672
325, 4003673
352, 4003674
555, 4003675
174, 4003676
414, 4003677
973, 4003678
342, 4003679
462, 4003680
174, 4003681
781, 4003682
93, 4003683
307, 4003684
590, 4003685
667, 4003686
127, 4003687
546, 4003688
630, 4003689
617, 4003690
519, 4003691
950, 4003692
771, 4003693
774, 4003694
515, 4003695
448, 4003696
626, 4003697
555, 4003698
96, 4003699
807, 4003700
979, 4003701
57, 4003702
607, 4003703
936, 4003704
22, 4003705
996, 4003706
963, 4003707
574, 4003708
752, 4003709
602, 4003710
8, 4003711
506, 4003712
935, 4003713
876, 4003714
597, 4003715
124, 4003716
41, 4003717
372, 4003718
26, 4003719
807, 4003720
833, 4003721
877, 4003722
90, 4003723
1, 4003724
186, 4003725
94, 4003726
114, 4003727
967, 4003728
545, 4003729
254, 4003730
912, 4003731
517, 4003732
134, 4003733
113, 4003734
684, 4003735
612, 4003736
307, 4003737
593, 4003738
921, 4003739
346, 4003740
219, 4003741
173, 4003742
972, 4003743
653, 4003744
340, 4003745
677, 4003746
644, 4003747
831, 4003748
229, 4003749
747, 4003750
392, 4003751
451, 4003752
848, 4003753
603, 4003754
60, 4003755
998, 4003756
168, 4003757
867, 4003758
147, 4003759
734, 4003760
996, 4003761
451, 4003762
541, 4003763
510, 4003764
10, 4003765
334, 4003766
99, 4003767
400, 4003768
692, 4003769
631, 4003770
333, 4003771
232, 4003772
262, 4003773
828, 4003774
347, 4003775
279, 4003776
261, 4003777
686, 4003778
136, 4003779
509, 4003780
297, 4003781
694, 4003782
752, 4003783
542, 4003784
251, 4003785
169, 4003786
243, 4003787
934, 4003788
199, 4003789
621, 4003790
702, 4003791
396, 4003792
635, 4003793
161, 4003794
161, 4003795
154, 4003796
29, 4003797
920, 4003798
211, 4003799
810, 4003800
177, 4003801
358, 4003802
856, 4003803
930, 4003804
664, 4003805
953, 4003806
955, 4003807
761, 4003808
106, 4003809
896, 4003810
971, 4003811
479, 4003812
764, 4003813
839, 4003814
458, 4003815
472, 4003816
986, 4003817
697, 4003818
512, 4003819
377, 4003820
966, 4003821
788, 4003822
492, 4003823
521, 4003824
694, 4003825
352, 4003826
283, 4003827
225, 4003828
377, 4003829
879, 4003830
326, 4003831
556, 4003832
274, 4003833
542, 4003834
104, 4003835
943, 4003836
667, 4003837
994, 4003838
645, 4003839
457, 4003840
163, 4003841
324, 4003842
212, 4003843
428, 4003844
504, 4003845
309, 4003846
654, 4003847
146, 4003848
29, 4003849
618, 4003850
924, 4003851
320, 4003852
829, 4003853
224, 4003854
787, 4003855
461, 4003856
373, 4003857
528, 4003858
91, 4003859
491, 4003860
21, 4003861
212, 4003862
947, 4003863
261, 4003864
183, 4003865
720, 4003866
959, 4003867
719, 4003868
830, 4003869
441, 4003870
682, 4003871
625, 4003872
560, 4003873
233, 4003874
179, 4003875
676, 4003876
148, 4003877
968, 4003878
468, 4003879
498, 4003880
724, 4003881
28, 4003882
125, 4003883
641, 4003884
436, 4003885
106, 4003886
397, 4003887
593, 4003888
904, 4003889
817, 4003890
801, 4003891
193, 4003892
225, 4003893
62, 4003894
483, 4003895
13, 4003896
233, 4003897
778, 4003898
708, 4003899
682, 4003900
458, 4003901
229, 4003902
121, 4003903
520, 4003904
730, 4003905
439, 4003906
321, 4003907
943, 4003908
185, 4003909
968, 4003910
988, 4003911
858, 4003912
736, 4003913
79, 4003914
197, 4003915
22, 4003916
123, 4003917
328, 4003918
721, 4003919
411, 4003920
232, 4003921
324, 4003922
414, 4003923
449, 4003924
806, 4003925
556, 4003926
788, 4003927
12, 4003928
934, 4003929
326, 4003930
174, 4003931
545, 4003932
45, 4003933
542, 4003934
730, 4003935
598, 4003936
543, 4003937
117, 4003938
716, 4003939
677, 4003940
429, 4003941
862, 4003942
502, 4003943
232, 4003944
800, 4003945
395, 4003946
51, 4003947
286, 4003948
947, 4003949
172, 4003950
663, 4003951
596, 4003952
788, 4003953
855, 4003954
952, 4003955
509, 4003956
818, 4003957
840, 4003958
639, 4003959
778, 4003960
192, 4003961
803, 4003962
687, 4003963
162, 4003964
232, 4003965
396, 4003966
653, 4003967
627, 4003968
953, 4003969
990, 4003970
718, 4003971
702, 4003972
817, 4003973
328, 4003974
483, 4003975
550, 4003976
499, 4003977
105, 4003978
39, 4003979
489, 4003980
610, 4003981
340, 4003982
47, 4003983
285, 4003984
107, 4003985
748, 4003986
337, 4003987
796, 4003988
287, 4003989
201, 4003990
749, 4003991
384, 4003992
942, 4003993
969, 4003994
31, 4003995
23, 4003996
372, 4003997
264, 4003998
338, 4003999
231, 4004000
